NAME: instance_9
TYPE: TSP
COMMENT: 9-city problem
DIMENSION: 9
EDGE_WEIGHT_TYPE: EUC_2D
NODE_COORD_SECTION
0 875 505
1 461 757
2 698 46
3 500 511
4 283 785
5 810 239
6 485 44
7 269 594
8 281 804
EOF
